************************************************************************
file with basedata            : md303_.bas
initial value random generator: 1303462699
************************************************************************
projects                      :  1
jobs (incl. supersource/sink ):  20
horizon                       :  140
RESOURCES
  - renewable                 :  2   R
  - nonrenewable              :  2   N
  - doubly constrained        :  0   D
************************************************************************
PROJECT INFORMATION:
pronr.  #jobs rel.date duedate tardcost  MPM-Time
    1     18      0       22       11       22
************************************************************************
PRECEDENCE RELATIONS:
jobnr.    #modes  #successors   successors
   1        1          3           2   3   4
   2        3          2           8  18
   3        3          2           5   8
   4        3          2          11  14
   5        3          3           6   7  12
   6        3          3          10  11  18
   7        3          2           9  13
   8        3          2          11  13
   9        3          2          14  16
  10        3          2          15  17
  11        3          2          15  17
  12        3          3          14  15  16
  13        3          1          19
  14        3          1          18
  15        3          1          19
  16        3          2          17  19
  17        3          1          20
  18        3          1          20
  19        3          1          20
  20        1          0        
************************************************************************
REQUESTS/DURATIONS:
jobnr. mode duration  R 1  R 2  N 1  N 2
------------------------------------------------------------------------
  1      1     0       0    0    0    0
  2      1     2      10    7    9    6
         2     6       9    5    9    5
         3     9       7    4    8    5
  3      1     3       6    4    6    8
         2     5       4    4    6    6
         3     9       2    3    5    4
  4      1     6       9    8    4    7
         2     7       3    7    4    4
         3     7       2    7    4    6
  5      1     1       2   10    8    7
         2     3       2   10    5    7
         3     4       2    9    5    5
  6      1     7       6    4    8    9
         2     7       7    4    5    9
         3    10       4    3    5    6
  7      1     5       6    9    8    4
         2     6       5    9    7    4
         3     8       4    8    4    4
  8      1     2       9    5    7    7
         2     5       5    5    6    5
         3    10       5    5    6    4
  9      1     2       5    4    9    5
         2     3       5    3    8    4
         3     6       5    2    7    3
 10      1     6      10    9    7    6
         2     8       6    4    5    5
         3    10       4    3    1    2
 11      1     2       4    2    8   10
         2     9       3    2    6    8
         3    10       2    2    3    5
 12      1     4       5    7    9    8
         2     7       5    2    2    5
         3     7       4    5    4    5
 13      1     1       4    9    6    2
         2     1       5    8    7    2
         3     9       1    6    6    2
 14      1     1       3    4    8    5
         2     2       2    4    6    4
         3     9       2    3    1    4
 15      1     1       6    6   10    7
         2     4       4    5   10    4
         3     9       3    4   10    2
 16      1     1       8    6    8    5
         2     3       8    5    5    3
         3     6       7    5    5    1
 17      1     1       7    7    9    6
         2     3       6    4    8    5
         3     7       2    4    6    1
 18      1     1      10   10    4    2
         2     3       8    8    4    1
         3     4       6    4    4    1
 19      1     4       5    6    7    8
         2     6       3    5    4    8
         3     6       5    6    5    6
 20      1     0       0    0    0    0
************************************************************************
RESOURCEAVAILABILITIES:
  R 1  R 2  N 1  N 2
   29   27  111   88
************************************************************************
